# Objective value = 28
c_n0_e9_42_43 1
c_n11_e59_60_71 0
c_n16_e58_61_63 0
c_n1_e54_55_57 0
c_n1_e54_55_58 0
c_n1_e54_56_57 1
c_n1_e54_56_58 0
c_n1_e54_57_58 0
c_n1_e55_57_58 0
c_n1_e56_57_58 1
c_n21_e52_53_57 0
c_n22_e27_59_72 0
c_n23_e35_36_37 1
c_n2_e21_61_62 1
c_n2_e21_61_64 0
c_n2_e21_61_65 0
c_n2_e21_62_64 0
c_n2_e21_62_65 0
c_n2_e21_64_65 0
c_n2_e61_62_64 0
c_n2_e61_62_65 1
c_n2_e61_64_65 0
c_n2_e62_64_65 0
c_n3_e63_66_67 0
c_n3_e63_66_68 0
c_n3_e63_67_68 0
c_n3_e66_67_68 0
c_n40_e11_25_37 0
c_n40_e1